NAME : L1.417896707.tour
COMMENT : Length = 417896707
COMMENT : Found by LKH [Keld Helsgaun] Mon Dec 10 21:36:01 2018
TYPE : TOUR
DIMENSION : 160
TOUR_SECTION
1
85
119
95
91
99
96
97
25
57
12
59
30
24
159
139
143
128
142
111
79
104
90
94
47
15
74
29
48
22
51
56
40
45
156
109
150
110
144
137
81
113
146
145
88
41
76
31
21
10
65
62
46
4
158
130
72
153
86
116
147
80
87
103
20
60
33
36
35
5
16
26
154
140
77
133
132
148
117
107
136
135
121
19
53
39
27
17
152
149
98
82
120
118
84
108
114
11
61
2
18
23
54
75
37
68
155
115
122
131
83
92
124
134
151
49
70
9
63
66
69
3
42
28
160
112
102
126
129
127
93
101
8
64
14
67
32
50
58
7
73
157
123
141
78
106
105
89
138
100
125
44
52
71
55
13
34
43
38
6
-1
EOF
